p cnf 128 458
-4 3 0
-4 -1 0
-3 1 4 0
-5 2 0
-5 4 0
-2 -4 5 0
1 -5 -6 0
-1 5 -6 0
1 5 6 0
-1 -5 6 0
9 7 0
9 8 0
-7 -8 -9 0
10 -6 0
10 9 0
6 -9 -10 0
-12 3 0
-12 -11 0
-3 11 12 0
-11 -12 -13 0
11 12 -13 0
-11 12 13 0
11 -12 13 0
-14 13 0
-14 3 0
-13 -3 14 0
-15 -10 0
-15 -14 0
10 14 15 0
16 5 -17 0
-16 -5 -17 0
16 -5 17 0
-16 5 17 0
18 -15 0
18 17 0
15 -17 -18 0
-19 3 -20 0
19 -3 -20 0
-19 -3 20 0
19 3 20 0
-20 3 -21 0
20 -3 -21 0
-20 -3 21 0
20 3 21 0
23 22 0
23 -4 0
-22 4 -23 0
24 21 0
24 -23 0
-21 23 -24 0
27 26 0
27 26 0
-26 -27 0
-28 -27 0
-28 7 0
27 -7 28 0
-29 -25 0
-29 -28 0
25 28 29 0
-30 -24 0
-30 29 0
24 -29 30 0
31 -18 0
31 -30 0
18 30 -31 0
-32 -9 0
-32 27 0
9 -27 32 0
-7 -27 -33 0
7 27 -33 0
-7 27 33 0
7 -27 33 0
34 -32 0
34 33 0
32 -33 -34 0
36 35 0
36 -19 0
-35 19 -36 0
-37 28 0
-37 36 0
-28 -36 37 0
-38 16 0
-38 19 0
-16 -19 38 0
-39 38 0
-39 -20 0
-38 20 39 0
40 -37 0
40 -39 0
37 39 -40 0
-41 34 0
-41 -40 0
-34 40 41 0
-31 41 -42 0
31 -41 -42 0
-31 -41 42 0
31 41 42 0
43 -16 0
43 -3 0
16 3 -43 0
44 -4 0
44 11 0
4 -11 -44 0
-45 -21 -46 0
45 21 -46 0
-45 21 46 0
45 -21 46 0
-47 44 0
-47 -46 0
-44 46 47 0
-48 -5 0
-48 -9 0
5 9 48 0
-49 2 0
-49 48 0
-2 -48 49 0
-50 47 0
-50 -49 0
-47 49 50 0
-51 -43 0
-51 50 0
43 -50 51 0
52 13 0
52 -35 0
-13 35 -52 0
52 9 -53 0
-52 -9 -53 0
52 -9 53 0
-52 9 53 0
-54 -53 0
-54 3 0
53 -3 54 0
-55 51 0
-55 -54 0
-51 54 55 0
56 2 0
56 -3 0
-2 3 -56 0
-57 -55 0
-57 -56 0
55 56 57 0
-59 -28 0
-59 11 0
28 -11 59 0
60 26 0
60 -22 0
-26 22 -60 0
59 60 -61 0
-59 -60 -61 0
59 -60 61 0
-59 60 61 0
62 -58 0
62 -61 0
58 61 -62 0
-57 -62 -63 0
57 62 -63 0
-57 62 63 0
57 -62 63 0
64 -36 0
64 -25 0
36 25 -64 0
-64 -32 -65 0
64 32 -65 0
-64 32 65 0
64 -32 65 0
-66 -28 0
-66 11 0
28 -11 66 0
-67 -27 0
-67 -44 0
27 44 67 0
-68 66 0
-68 67 0
-66 -67 68 0
69 5 0
69 19 0
-5 -19 -69 0
-70 68 0
-70 -69 0
-68 69 70 0
65 70 -71 0
-65 -70 -71 0
65 -70 71 0
-65 70 71 0
-72 -29 0
-72 29 0
2 -16 -73 0
-2 16 -73 0
2 16 73 0
-2 -16 73 0
-74 -73 0
-74 -24 0
73 24 74 0
75 74 0
75 3 0
-74 -3 -75 0
-75 -49 -76 0
75 49 -76 0
-75 49 76 0
75 -49 76 0
-77 25 0
-77 76 0
-25 -76 77 0
-4 77 -78 0
4 -77 -78 0
-4 -77 78 0
4 77 78 0
79 -78 0
79 -12 0
78 12 -79 0
-80 72 0
-80 79 0
-72 -79 80 0
81 49 0
81 -46 0
-49 46 -81 0
68 48 -82 0
-68 -48 -82 0
68 -48 82 0
-68 48 82 0
1 -26 -83 0
-1 26 -83 0
1 26 83 0
-1 -26 83 0
-84 -82 0
-84 83 0
82 -83 84 0
44 -16 -85 0
-44 16 -85 0
44 16 85 0
-44 -16 85 0
86 84 0
86 -85 0
-84 85 -86 0
-87 -81 0
-87 86 0
81 -86 87 0
-80 87 -88 0
80 -87 -88 0
-80 -87 88 0
80 87 88 0
89 -7 0
89 -28 0
7 28 -89 0
90 46 0
90 89 0
-46 -89 -90 0
-91 4 0
-91 -11 0
-4 11 91 0
92 -90 0
92 91 0
90 -91 -92 0
88 -92 -93 0
-88 92 -93 0
88 92 93 0
-88 -92 93 0
11 -91 -94 0
-11 91 -94 0
11 91 94 0
-11 -91 94 0
-94 4 -95 0
94 -4 -95 0
-94 -4 95 0
94 4 95 0
-29 -96 0
29 -96 0
33 13 -97 0
-33 -13 -97 0
33 -13 97 0
-33 13 97 0
96 97 -98 0
-96 -97 -98 0
96 -97 98 0
-96 97 98 0
99 -98 0
99 -74 0
98 74 -99 0
100 -99 0
100 37 0
99 -37 -100 0
-95 100 -101 0
95 -100 -101 0
-95 -100 101 0
95 100 101 0
-102 93 0
-102 -101 0
-93 101 102 0
-49 13 -103 0
49 -13 -103 0
-49 -13 103 0
49 13 103 0
-12 -103 -104 0
12 103 -104 0
-12 103 104 0
12 -103 104 0
-13 5 -105 0
13 -5 -105 0
-13 -5 105 0
13 5 105 0
104 -105 -106 0
-104 105 -106 0
104 105 106 0
-104 -105 106 0
-107 73 0
-107 -52 0
-73 52 107 0
108 73 0
108 107 0
-73 -107 -108 0
109 106 0
109 108 0
-106 -108 -109 0
110 96 0
110 59 0
-96 -59 -110 0
111 23 0
111 91 0
-23 -91 -111 0
112 -25 0
112 -35 0
25 35 -112 0
113 -111 0
113 112 0
111 -112 -113 0
107 -69 -114 0
-107 69 -114 0
107 69 114 0
-107 -69 114 0
113 -114 -115 0
-113 114 -115 0
113 114 115 0
-113 -114 115 0
-110 115 -116 0
110 -115 -116 0
-110 -115 116 0
110 115 116 0
109 -116 -117 0
-109 116 -117 0
109 116 117 0
-109 -116 117 0
-26 -37 -118 0
26 37 -118 0
-26 37 118 0
26 -37 118 0
117 118 -119 0
-117 -118 -119 0
117 -118 119 0
-117 118 119 0
-102 -119 -120 0
102 119 -120 0
-102 119 120 0
102 -119 120 0
121 71 0
121 120 0
-71 -120 -121 0
-63 121 -122 0
63 -121 -122 0
-63 -121 122 0
63 121 122 0
-123 73 0
-123 -39 0
-73 39 123 0
-2 68 -124 0
2 -68 -124 0
-2 -68 124 0
2 68 124 0
13 124 -125 0
-13 -124 -125 0
13 -124 125 0
-13 124 125 0
-123 -125 -126 0
123 125 -126 0
-123 125 126 0
123 -125 126 0
127 122 0
127 126 0
-122 -126 -127 0
-128 42 0
-128 -127 0
-42 127 128 0
76 96 0
-21 -105 71 32 -122 48 0
-97 103 0
-29 -18 -47 0
-86 -63 105 -4 116 0
-13 -3 68 -111 -109 0
-19 -108 42 86 0
53 92 0
35 -126 55 0
-56 2 103 -25 -7 0
-55 -30 75 0
-14 52 8 -95 0
112 -96 -4 99 48 0
-102 -113 -96 0
93 -55 58 0
55 109 15 -41 0
-95 -12 -82 57 60 85 0
128 43 40 0
-61 119 0
-69 -14 86 43 0
-36 -82 1 92 -9 0
13 -108 -59 126 -22 -101 0
-12 77 -22 63 0
-110 18 -29 0
-112 80 96 -121 -53 75 0
-14 -13 17 -18 0
15 59 -120 21 0
36 93 -88 -53 -19 8 0
38 -108 24 52 -111 126 0
76 99 47 -65 0
-32 34 0
43 85 72 19 45 0
-77 -83 -53 55 103 0
-106 -62 112 66 -27 0
32 -42 98 23 123 0
29 63 0
-49 -27 0
52 102 -113 -96 16 0
-6 -126 127 -67 -120 0
79 103 -87 0
-44 63 13 0
-54 125 -23 17 2 0
9 6 -95 -39 56 -73 0
62 25 9 0
-2 -120 0
-98 60 103 0
-93 51 1 -75 54 0
-58 10 -44 70 0
27 -16 80 0
-67 -38 0
-94 -19 -25 0
-36 103 -18 -56 81 0
126 61 27 0
-52 -122 13 0
126 69 -12 0
4 37 72 -89 -65 0
-9 -24 -1 0
71 120 32 56 -74 0
-50 38 121 28 0
-10 -11 -6 0
1 56 10 8 -34 0
-10 -108 -48 -50 42 -56 0
-113 -17 69 -41 0
-15 -68 18 -37 0
-85 40 33 0
41 36 22 15 -35 11 0
89 -58 -75 -115 -25 71 0
109 98 0
49 -28 20 0
-91 -10 0
-84 58 -70 -117 -19 0
7 -20 -9 -44 0
74 44 0
-120 8 -45 0
16 -117 126 -107 -3 0
38 -101 -88 118 -98 0
128 0
